
Log started (V11.0.0) Tue Apr 15 18:41:05 2008

Tried aggregator 1 time.
Reduced MIP has 110 rows, 1001 columns, and 2010 nonzeros.
Presolve time =    0.00 sec.
Clique table members: 100.
MIP emphasis: balance optimality and feasibility.
MIP search method: dynamic search.
Parallel mode: none, using 1 thread.
Root relaxation solution time =    0.02 sec.

        Nodes                                         Cuts/
   Node  Left     Objective  IInf  Best Integer     Best Node    ItCnt     Gap

*     0+    0                         5757.0000      177.4887      230   96.92%
*     0+    0                          207.0000      177.4887      230   14.26%
      0     0      178.1224    24      207.0000      Fract: 9      246   13.95%
*     0+    0                          196.0000      178.1224      246    9.12%
      0     0      178.3418    34      196.0000    MIRcuts: 4      262    9.01%
*     0+    0                          193.0000      178.3418      262    7.59%
      0     0      178.4282    41      193.0000       Cuts: 8      280    7.55%
*     0+    0                          192.0000      178.4282      280    7.07%
      0     0      178.4289    43      192.0000     Covers: 1      281    7.07%
*     0+    0                          191.0000      178.4289      281    6.58%
      0     0      178.4294    43      191.0000    MIRcuts: 1      283    6.58%
*     0+    0                          190.0000      178.4294      283    6.09%
*     0+    0                          188.0000      178.4294      283    5.09%
*     0+    0                          184.0000      178.4294      283    3.03%

Repeating presolve.
Tried aggregator 1 time.
MIP Presolve eliminated 0 rows and 328 columns.
Reduced MIP has 110 rows, 673 columns, and 1354 nonzeros.
Tried aggregator 1 time.
Represolve time =    0.03 sec.
Clique table members: 104.
MIP emphasis: balance optimality and feasibility.
MIP search method: dynamic search.
Parallel mode: none, using 1 thread.
Root relaxation solution time =    0.02 sec.

        Nodes                                         Cuts/
   Node  Left     Objective  IInf  Best Integer     Best Node    ItCnt     Gap

      0     0      179.0000    28      184.0000      179.0000      183    2.72%
      0     2      179.0000    28      184.0000      179.0000      183    2.72%
    100    71      182.0000    22      184.0000      179.0000     2749    2.72%
    200   146      182.0000    20      184.0000      179.0000     5261    2.72%
*   220+  129                          183.0000      179.0000     5854    2.19%
    300   195      181.0000    27      183.0000      179.0000     8047    2.19%
    400   276      182.0000    21      183.0000      179.0000    10932    2.19%
*   494+  236                          182.0000      179.0000    14974    1.65%
*   494+  157                          181.0000      179.0000    14974    1.10%
    500   160      179.0000    25      181.0000      179.0000    15113    1.10%
*   592     0      integral     0      180.0000      180.0000    22150    0.00%

Cover cuts applied:  122
Mixed integer rounding cuts applied:  10
Gomory fractional cuts applied:  1

Solution pool: 13 solutions saved.

MIP - Integer optimal solution:  Objective = 1.8000000000e+002
Solution time =    3.78 sec.  Iterations = 22150  Nodes = 593


Incumbent solution
Variable Name           Solution Value
Cmax                        180.000000
X_1_9                         1.000000
X_2_7                         1.000000
X_3_9                         1.000000
X_4_2                         1.000000
X_5_5                         1.000000
X_6_10                        1.000000
X_7_10                        1.000000
X_8_2                         1.000000
X_9_9                         1.000000
X_10_5                        1.000000
X_11_8                        1.000000
X_12_10                       1.000000
X_13_7                        1.000000
X_14_3                        1.000000
X_15_8                        1.000000
X_16_4                        1.000000
X_17_3                        1.000000
X_18_6                        1.000000
X_19_2                        1.000000
X_20_4                        1.000000
X_21_2                        1.000000
X_22_8                        1.000000
X_23_8                        1.000000
X_24_1                        1.000000
X_25_4                        1.000000
X_26_5                        1.000000
X_27_10                       1.000000
X_28_3                        1.000000
X_29_10                       1.000000
X_30_7                        1.000000
X_31_9                        1.000000
X_32_9                        1.000000
X_33_4                        1.000000
X_34_10                       1.000000
X_35_9                        1.000000
X_36_2                        1.000000
X_37_5                        1.000000
X_38_3                        1.000000
X_39_4                        1.000000
X_40_3                        1.000000
X_41_1                        1.000000
X_42_6                        1.000000
X_43_9                        1.000000
X_44_6                        1.000000
X_45_1                        1.000000
X_46_7                        1.000000
X_47_3                        1.000000
X_48_9                        1.000000
X_49_8                        1.000000
X_50_8                        1.000000
X_51_7                        1.000000
X_52_3                        1.000000
X_53_2                        1.000000
X_54_6                        1.000000
X_55_7                        1.000000
X_56_5                        1.000000
X_57_7                        1.000000
X_58_7                        1.000000
X_59_2                        1.000000
X_60_1                        1.000000
X_61_3                        1.000000
X_62_1                        1.000000
X_63_1                        1.000000
X_64_7                        1.000000
X_65_10                       1.000000
X_66_2                        1.000000
X_67_6                        1.000000
X_68_4                        1.000000
X_69_5                        1.000000
X_70_4                        1.000000
X_71_5                        1.000000
X_72_10                       1.000000
X_73_2                        1.000000
X_74_5                        1.000000
X_75_2                        1.000000
X_76_1                        1.000000
X_77_2                        1.000000
X_78_6                        1.000000
X_79_10                       1.000000
X_80_7                        1.000000
X_81_8                        1.000000
X_82_4                        1.000000
X_83_9                        1.000000
X_84_4                        1.000000
X_85_9                        1.000000
X_86_6                        1.000000
X_87_3                        1.000000
X_88_6                        1.000000
X_89_7                        1.000000
X_90_3                        1.000000
X_91_10                       1.000000
X_92_8                        1.000000
X_93_10                       1.000000
X_94_2                        1.000000
X_95_6                        1.000000
X_96_3                        1.000000
X_97_8                        1.000000
X_98_5                        1.000000
X_99_1                        1.000000
X_100_3                       1.000000
All other variables in the range 1-1001 are 0.
